c [MSE2022] -- begin -- [MSE2022]
0.00/0.04	c
0.00/0.04	c NuWLS based on TT-Open-WBO-Inc:	 an Anytime MaxSAT Solver --- based on Glucose4.1 (core version)
0.00/0.04	c Version:	 MaxSAT Evaluation 2021
0.00/0.04	c Author of NuWLS:	 Yi Chu, Xiang He
0.00/0.04	c Author of TT-Open-WBO-Inc:	 Alexander Nadel
0.00/0.04	c Authors of the baseline solver Open-WBO-Inc:	 Saurabh Joshi, Prateek Kumar, Ruben Martins, Sukrut Rao
0.00/0.04	c WARNING: for repeatability, setting FPU to use double precision
0.00/0.04	c |                                                                                                       |
0.00/0.04	c ========================================[ Problem Statistics ]===========================================
0.00/0.04	c |                                                                                                       |
0.00/0.04	c |  Problem Format:             MaxSAT                                                                   |
0.00/0.04	c |  Problem Type:           Unweighted                                                                   |
0.00/0.04	c |  Number of variables:           598                                                                   |
0.00/0.04	c |  Number of hard clauses:          0                                                                   |
0.00/0.04	c |  Number of soft clauses:       7938                                                                   |
0.00/0.04	c |  Number of cardinality:           0                                                                   |
0.00/0.04	c |  Number of PB :                   0                                                                   |
0.00/0.04	c |  Parse time:                   0.00 s                                                                 |
0.00/0.04	c |                                                                                                       |
0.00/0.04	c | best-alg-selector overriden target_vars_bump_val to 0, since it hadn't been set by the user |
0.00/0.04	c | best-alg-selector overriden ms_model_per_sec_thr to 2, since it hadn't been set by the user |
0.00/0.04	c | best-alg-selector overriden ms_mutation_classes to 0, since it hadn't been set by the user |
0.00/0.04	c | best-alg-selector overriden ms_chrono to 100, since it hadn't been set by the user |
0.00/0.04	c ==========================================[ Solver Settings ]============================================
0.00/0.04	c |                                                                                                       |
0.00/0.04	c |  Algorithm:                     OBV                                                                   |
0.00/0.04	c |  Cardinality Encoding:       Modulo Totalizer                                                         |
0.00/0.04	c |  Limit number conflicts:       1000                                                                   |
0.00/0.04	c |  Limit number iterations: 2147483647                                                                   |
0.00/0.04	c |  Global limit number conflicts:   F                                                                   |
0.00/0.04	c |                                                                                                       |
0.00/0.04	c Mrs. Beaver incomplete stage
0.00/0.04	o 1717
0.00/0.04	c total_lit_count 16474
0.00/0.04	c before build neighbor
0.00/0.04	c build instime is 0
0.00/0.04	c using neighbor 
0.00/0.04	c build NuWLS instance done!
0.00/0.04	c changing to NuWLS solver!!!
0.00/0.04	c problem weighted = 0
0.00/0.04	o 1717
0.00/0.04	o 1709
0.00/0.04	o 1699
0.00/0.04	o 1693
0.00/0.04	o 1685
0.00/0.04	o 1679
0.00/0.04	o 1673
0.00/0.04	o 1667
0.00/0.04	o 1661
0.00/0.04	o 1653
0.00/0.04	o 1648
0.00/0.04	o 1642
0.00/0.04	o 1636
0.00/0.04	o 1630
0.00/0.04	o 1624
0.00/0.04	o 1619
0.00/0.04	o 1614
0.00/0.04	o 1609
0.00/0.04	o 1603
0.00/0.05	o 1598
0.00/0.05	o 1593
0.00/0.05	o 1589
0.00/0.05	o 1584
0.00/0.05	o 1579
0.00/0.05	o 1575
0.00/0.05	o 1571
0.00/0.05	o 1566
0.00/0.05	o 1562
0.00/0.05	o 1558
0.00/0.05	o 1554
0.00/0.05	o 1550
0.00/0.05	o 1546
0.00/0.05	o 1542
0.00/0.05	o 1538
0.00/0.05	o 1533
0.00/0.05	o 1529
0.00/0.05	o 1525
0.00/0.05	o 1521
0.00/0.05	o 1517
0.00/0.05	o 1513
0.00/0.05	o 1509
0.00/0.05	o 1506
0.00/0.05	o 1503
0.00/0.05	o 1500
0.00/0.05	o 1497
0.00/0.05	o 1494
0.00/0.05	o 1491
0.00/0.05	o 1486
0.00/0.05	o 1483
0.00/0.05	o 1480
0.00/0.05	o 1477
0.00/0.05	o 1474
0.00/0.05	o 1470
0.00/0.05	o 1467
0.00/0.05	o 1464
0.00/0.05	o 1460
0.00/0.05	o 1457
0.00/0.05	o 1454
0.00/0.05	o 1451
0.00/0.05	o 1448
0.00/0.05	o 1445
0.00/0.06	o 1442
0.00/0.06	o 1439
0.00/0.06	o 1436
0.00/0.06	o 1432
0.00/0.06	o 1429
0.00/0.06	o 1426
0.00/0.06	o 1423
0.00/0.06	o 1419
0.00/0.06	o 1416
0.00/0.06	o 1413
0.00/0.06	o 1410
0.00/0.06	o 1407
0.00/0.06	o 1404
0.00/0.06	o 1401
0.00/0.06	o 1398
0.00/0.06	o 1396
0.00/0.06	o 1394
0.00/0.06	o 1392
0.00/0.06	o 1390
0.00/0.06	o 1388
0.00/0.06	o 1384
0.00/0.06	o 1382
0.00/0.06	o 1380
0.00/0.06	o 1378
0.00/0.06	o 1376
0.04/0.06	o 1374
0.04/0.06	o 1372
0.04/0.06	o 1370
0.04/0.06	o 1368
0.04/0.06	o 1366
0.04/0.06	o 1364
0.04/0.06	s SATISFIABLE
0.04/0.06	o 1366 
0.04/0.06	v 0100111010000101110010111000110111110101100110100010100010110110110110100001001011111101011010000110000010111111001101111100110001011110111000000010100100101101011010001001110110011100111000011101010010101101110000000010110111010011010000110000000000110101001010000101101110110111010101001110110110110011001011111000010001110011010110110110110111001111011111111101111000110101100110101111111010010000010000101100110111000111100100010011111110011011010101010101010011111101001101001101101011111101001010110111000111100100110000111001100101001010001101100001110110101101011000101010001010011101101010
c [MSE2022] -- end -- [MSE2022]
